Si 
 1.0000000000000000
     5.5844734699999998    0.0000000000000000    0.0000000000000000
     0.0000000000000000    5.5844734699999998    0.0000000000000000
     0.0000000000000000    0.0000000000000000    5.5844734699999998
  Si
   4
Direct
  0.0000000000000000  0.0000000000000000  0.0000000000000000
  0.5000000000000000  0.5000000000000000  0.0000000000000000
  0.5000000000000000  0.0000000000000000  0.5000000000000000
  0.0000000000000000  0.5000000000000000  0.5000000000000000
