Si 
 1.0000000000000000
     5.4690641500000003    0.0000000000000000    0.0000000000000000
     0.0000000000000000    5.4690641500000003    0.0000000000000000
     0.0000000000000000    0.0000000000000000    5.4690641500000003
  Si
   8
Direct
  0.1370560100000000  0.0062641000000000  0.0889562700000000
  0.3757700400000000  0.2705329300000000  0.3303767400000000
  0.6340699900000000  0.4939886800000000  0.0680233700000000
  0.8726737800000000  0.7583898100000001  0.3238096600000000
  0.6120495500000001  0.0046031900000000  0.5749220000000000
  0.8822791999999999  0.2326395400000000  0.8208816600000000
  0.1191432800000000  0.5096995000000000  0.5748543200000000
  0.3841894500000000  0.7556891100000001  0.8441844299999999
