Si 
 1.0000000000000000
     5.4690641500000003    0.0000000000000000    0.0000000000000000
     0.0000000000000000    5.4690641500000003    0.0000000000000000
     0.0000000000000000    0.0000000000000000    5.4690641500000003
  Si
   8
Direct
  0.1426090700000000  0.0152122100000000  0.0909495500000000
  0.3979778800000000  0.2517348400000000  0.3403174100000000
  0.6380693100000000  0.5148561100000000  0.0931022300000000
  0.9117790499999999  0.7300817200000000  0.3300729299999999
  0.6568858000000000  0.9868022299999999  0.5833768600000000
  0.8833346600000000  0.2668590800000000  0.8489760399999999
  0.1576285300000000  0.5107525200000000  0.5937202100000000
  0.3948382100000000  0.7606952400000000  0.8475833899999999
