Al Mg Si 
 1.0000000000000000
     8.0831800000000005    0.0000000000000000    0.0000000000000000
     0.0000000000000000    8.0831800000000005    0.0000000000000000
     0.0000000000000000    0.0000000000000000    8.0831800000000005
  Al  Mg  Si
  22   4   6
Direct
  0.0050887000000000  0.9978320000000002  0.0085148000000000
  0.7434373000000000  0.7710808000000000  0.5124345000000000
  0.0166731000000000  0.7546452000000000  0.7456149000000000
  0.0155150000000000  0.5108165000000000  0.5115804000000000
  0.7663450000000001  0.0009750000000000  0.7633195000000000
  0.4827322000000000  0.0153933000000000  0.5090317000000000
  0.0041373000000000  0.2545251000000000  0.7485339000000000
  0.2468466000000000  0.0253416000000000  0.7437863000000000
  0.0064727000000000  0.9910080000000000  0.4869757000000000
  0.7315795000000000  0.4991191000000000  0.7493519000000000
  0.7479325000000000  0.7428267000000000  0.9898988000000000
  0.4889849000000000  0.5009786000000001  0.0372316000000000
  0.5007571000000000  0.7651495000000000  0.7508823999999999
  0.4990327000000000  0.0018351000000000  0.9911929000000000
  0.2552439000000000  0.7553747000000000  0.9979364000000001
  0.9983690000000001  0.5024213000000000  0.9846154000000000
  0.2525494000000000  0.2481571000000000  0.0025369000000000
  0.7378261000000000  0.9806212000000000  0.2359562000000000
  0.7491945000000000  0.2519923000000000  0.0087000000000000
  0.0170468000000000  0.7438467000000000  0.2463480000000000
  0.2644360000000000  0.9956747999999999  0.2539549000000000
  0.0107869000000000  0.2532055000000000  0.2429732000000000
  0.7497855000000000  0.5081216000000000  0.2654069000000000
  0.4581958000000000  0.4791409000000000  0.4908053000000000
  0.7467198000000000  0.2329019000000000  0.4896283000000000
  0.2918534000000000  0.4832561000000000  0.7468593000000000
  0.2468457000000000  0.5006375000000000  0.2551143000000000
  0.5277297000000000  0.2410152000000000  0.7629048000000000
  0.4732114000000000  0.2416612000000000  0.2458438000000000
  0.2301122000000000  0.2404581000000000  0.4787247000000000
  0.2473697000000000  0.7592239000000000  0.4898056000000000
  0.4871896000000000  0.7507638000000000  0.2535368000000000
