Si 
 1.0000000000000000
     3.8675552099999999    0.0000000000000000    0.0000000000000000
     0.0000000000000000    3.8675552099999999    0.0000000000000000
     0.0000000000000000    0.0000000000000000    3.8675552099999999
  Si
   4
Direct
  0.0000000000000000  0.0000000000000000  0.0000000000000000
  0.4999999999999999  0.4999999999999999  0.0000000000000000
  0.4999999999999999  0.0000000000000000  0.4999999999999999
  0.0000000000000000  0.4999999999999999  0.4999999999999999
