Si 
 1.0000000000000000
     5.4690641500000003    0.0000000000000000    0.0000000000000000
     0.0000000000000000    5.4690641500000003    0.0000000000000000
     0.0000000000000000    0.0000000000000000    5.4690641500000003
  Si
   8
Direct
  0.1521535300000000  0.0189962600000000  0.0801874600000000
  0.3981616700000000  0.2404908900000000  0.3543269200000000
  0.6507377800000000  0.4996989300000000  0.1000893600000000
  0.9033119899999998  0.7670850799999999  0.3343600600000000
  0.6461641000000000  0.0080840200000000  0.6049339200000000
  0.8977775699999999  0.2697291000000000  0.8248864600000000
  0.1465825800000000  0.4982900299999999  0.5830893000000000
  0.3882420899999999  0.7346199199999999  0.8462305400000000
