Si 
 1.0000000000000000
     5.4690641500000003    0.0000000000000000    0.0000000000000000
     0.0000000000000000    5.4690641500000003    0.0000000000000000
     0.0000000000000000    0.0000000000000000    5.4690641500000003
  Si
   8
Direct
  0.1590798000000000  0.0040089200000000  0.0949370300000000
  0.4076315300000000  0.2786731500000000  0.3431681000000000
  0.6389856300000000  0.5059771000000000  0.0834788700000000
  0.8880868899999999  0.7518034000000000  0.3457491000000000
  0.6390133000000000  0.0064003300000000  0.5917541100000000
  0.9000860000000001  0.2346940300000000  0.8380913000000000
  0.1440029300000000  0.5019713400000000  0.5870957600000000
  0.4062453799999999  0.7534659700000000  0.8438298400000001
