Si 
 1.0000000000000000
     3.9507767100000000    0.0000000000000000    0.0000000000000000
     0.0000000000000000    3.9507767100000000    0.0000000000000000
     0.0000000000000000    0.0000000000000000    3.9507767100000000
  Si
   4
Direct
  0.0000000000000000  0.0000000000000000  0.0000000000000000
  0.5000000000000000  0.5000000000000000  0.0000000000000000
  0.5000000000000000  0.0000000000000000  0.5000000000000000
  0.0000000000000000  0.5000000000000000  0.5000000000000000
