Si 
 1.0000000000000000
     3.1497302800000000    0.0000000000000000    0.0000000000000000
     0.0000000000000000    3.1497302800000000    0.0000000000000000
     0.0000000000000000    0.0000000000000000    3.1497302800000000
  Si
   2
Direct
  0.0000000000000000  0.0000000000000000  0.0000000000000000
  0.5000000000000000  0.5000000000000000  0.5000000000000000
