Al Mg Si 
 1.0000000000000000
     8.0831800000000005    0.0000000000000000    0.0000000000000000
     0.0000000000000000    8.0831800000000005    0.0000000000000000
     0.0000000000000000    0.0000000000000000    8.0831800000000005
  Al  Mg  Si
  22   3   7
Direct
  0.0149697000000000  0.9955568000000000  0.0007825000000000
  0.7575771000000000  0.7558987000000000  0.5166492000000000
  0.0117880000000000  0.7501278000000000  0.7484965000000000
  0.0248286000000000  0.5033541000000000  0.5129475999999999
  0.7531128000000000  0.9978066000000000  0.7582366000000000
  0.4923700000000000  0.9732904999999999  0.5030879000000000
  0.0096760000000000  0.2481395000000000  0.7513268000000000
  0.2488671000000000  0.9949106999999999  0.7400884000000000
  0.0034172000000000  0.9985265000000000  0.4932973000000000
  0.7451838000000000  0.5052580000000000  0.7594572000000001
  0.7503285000000000  0.7554717000000000  0.9980009000000001
  0.4947124000000000  0.4919625000000000  0.0167212000000000
  0.4947087000000000  0.7454923000000000  0.7650697000000000
  0.4943711000000000  0.0103321000000000  0.9902557999999999
  0.2553798000000000  0.7411285000000000  0.0078444000000000
  0.0000493000000000  0.5039889000000000  0.9884899000000000
  0.2516305000000000  0.2610815000000000  0.9941391999999999
  0.7435022000000000  0.9881032000000000  0.2443563000000000
  0.7511776000000000  0.2434757000000000  0.9987072000000001
  0.0137971000000000  0.7505250999999999  0.2534438000000000
  0.2626674000000000  0.0039796000000000  0.2527672000000000
  0.0155510000000000  0.2499805000000000  0.2450567000000000
  0.7534362999999999  0.5071625000000000  0.2571097000000000
  0.4698132000000000  0.5201702000000000  0.4838709000000000
  0.7407258000000000  0.2510319000000000  0.5002969000000000
  0.2517289000000000  0.4974490000000000  0.7423511000000000
  0.2486142000000000  0.4995296000000000  0.2524648000000000
  0.4871796000000000  0.2498025000000000  0.7426546000000001
  0.4789747000000000  0.2458615000000000  0.2444480000000000
  0.2460361000000000  0.2559713000000000  0.4952408999999999
  0.2453133000000000  0.7483299000000000  0.4955979999999999
  0.4885114000000000  0.7563006000000000  0.2467429000000000
