Si 
 1.0000000000000000
     5.7060384800000001   -0.4617076200000000   -0.1706256400000000
    -0.0000000000000000    5.2812705700000002    0.6103083900000000
    -0.0000000000000000   -0.0000000000000000    5.7233506500000004
  Si
   8
Direct
  0.0383575300000000  0.2545284400000000  0.9896622600000000
  0.5875586000000002  0.7771019900000000  0.0168163000000000
  0.5093539000000001  0.2112885800000000  0.4186693899999999
  0.0371345200000000  0.7781540500000000  0.6212995400000000
  0.2322023900000000  0.5225223600000000  0.2844502300000001
  0.8529640200000002  0.9853038900000001  0.2682733600000000
  0.7829804299999999  0.4862190000000001  0.7288995599999999
  0.3743108300000000  0.0638229500000000  0.8263287000000000
