Al Mg Si 
 1.0000000000000000
     8.0831800000000005    0.0000000000000000    0.0000000000000000
     0.0000000000000000    8.0831800000000005    0.0000000000000000
     0.0000000000000000    0.0000000000000000    8.0831800000000005
  Al  Mg  Si
  22   2   8
Direct
  0.9885709000000000  0.0021527000000000  0.0130442000000000
  0.7531311000000001  0.7580638000000000  0.5088287000000000
  0.0049593000000000  0.7493368000000000  0.7472301000000000
  0.2657287000000000  0.4995822000000000  0.7403364000000000
  0.0002611000000000  0.4932915000000000  0.5169179000000000
  0.7613316999999999  0.0020801000000000  0.7513603000000000
  0.7531508000000000  0.2346515000000000  0.5024137000000000
  0.2249928000000000  0.0064436000000000  0.7664409000000000
  0.0151317000000000  0.9963452000000000  0.4883577000000000
  0.7407705999999999  0.4975279000000001  0.7522526000000000
  0.7548901000000000  0.7508158000000000  0.9948241000000001
  0.4927037000000000  0.5096900000000000  0.0093092000000000
  0.5026212000000000  0.7492474000000000  0.7539335000000000
  0.7420575000000000  0.2475974000000000  0.9976706999999999
  0.2466389000000000  0.7491087000000000  0.9938008000000000
  0.0071901000000000  0.4938611000000000  0.9856875000000000
  0.2633520000000000  0.2555690000000000  0.9984878000000000
  0.2628687000000000  0.9978125000000000  0.2315989000000000
  0.7364917000000000  0.9928653999999999  0.2487842000000000
  0.0146809000000000  0.7462593000000000  0.2525986000000000
  0.0203264000000000  0.2489316000000000  0.2515146000000000
  0.5031068000000000  0.0004437000000000  0.9799919000000000
  0.7535668000000000  0.4987660999999999  0.2554009000000000
  0.4631655000000000  0.0030776000000000  0.5212320000000000
  0.4958325000000000  0.4997781000000001  0.4962623000000000
  0.2578322000000000  0.4991718000000001  0.2521575000000000
  0.4890258000000000  0.2629561000000000  0.7377832000000000
  0.0060696000000000  0.2518430000000000  0.7454200000000000
  0.4904000000000000  0.2486756000000000  0.2573877000000000
  0.2466713000000000  0.2647386000000000  0.4980099000000001
  0.2508555000000000  0.7389300000000000  0.4969703000000000
  0.4916241000000000  0.7503862000000000  0.2539920000000000
