Si 
 1.0000000000000000
     5.4687279999999996    0.0000000000000000    0.0000000000000000
     0.0000000000000000    5.4687279999999996    0.0000000000000000
     0.0000000000000000    0.0000000000000000    5.4687279999999996
  Si
   8
Direct
  0.2500000000000000  0.2500000000000000  0.2500000000000000
  0.7500000000000000  0.7500000000000000  0.2500000000000000
  0.5000000000000000  0.5000000000000000  0.0000000000000000
  0.0000000000000000  0.5000000000000000  0.5000000000000000
  0.2500000000000000  0.7500000000000000  0.7500000000000000
  0.0000000000000000  0.0000000000000000  0.0000000000000000
  0.7500000000000000  0.2500000000000000  0.7500000000000000
  0.5000000000000000  0.0000000000000000  0.5000000000000000
