Si 
 1.0000000000000000
     7.8969379899999996    0.0000000000000000    0.0000000000000000
     0.0000000000000000    7.8969379899999996    0.0000000000000000
     0.0000000000000000    0.0000000000000000    7.8969379899999996
  Si
   8
Direct
  0.0000000000000000  0.0000000000000000  0.0000000000000000
  0.2500000000000000  0.2500000000000000  0.2500000000000000
  0.5000000000000000  0.5000000000000000  0.0000000000000000
  0.7500000000000000  0.7500000000000000  0.2500000000000000
  0.5000000000000000  0.0000000000000000  0.5000000000000000
  0.7500000000000000  0.2500000000000000  0.7500000000000000
  0.0000000000000000  0.5000000000000000  0.5000000000000000
  0.2500000000000000  0.7500000000000000  0.7500000000000000
