Si 
 1.0000000000000000
     5.4690641500000003    0.0000000000000000    0.0000000000000000
     0.0000000000000000    5.4690641500000003    0.0000000000000000
     0.0000000000000000    0.0000000000000000    5.4690641500000003
  Si
   8
Direct
  0.1489931000000000  0.0016375700000000  0.0897060400000000
  0.4045041099999999  0.2569837200000000  0.3411939500000000
  0.6424773499999999  0.5158552500000000  0.0924515300000000
  0.9002010499999998  0.7530136399999999  0.3402350100000000
  0.6597697300000001  0.0069766800000000  0.5988538600000000
  0.8863929300000000  0.2580377000000000  0.8508337000000000
  0.1574268100000000  0.4969751399999999  0.5849731300000000
  0.3829090300000000  0.7475002300000000  0.8295754399999999
