Si 
 1.0000000000000000
     2.9914977000000000    0.0000000000000000    0.0000000000000000
     0.0000000000000000    3.0525486700000002    0.0000000000000000
     0.0000000000000000    0.0000000000000000    3.0525486700000002
  Si
   2
Direct
  0.0000000000000000  0.0000000000000000  0.0000000000000000
  0.5000000000000000  0.4999999999999999  0.4999999999999999
