Si 
 1.0000000000000000
     3.8288796600000001    0.0000000000000000    0.0000000000000000
     0.0000000000000000    3.8288796600000001    0.0000000000000000
     0.0000000000000000    0.0000000000000000    3.8288796600000001
  Si
   4
Direct
  0.0000000000000000  0.0000000000000000  0.0000000000000000
  0.5000000000000000  0.5000000000000000  0.0000000000000000
  0.5000000000000000  0.0000000000000000  0.5000000000000000
  0.0000000000000000  0.5000000000000000  0.5000000000000000
