Al Mg Si 
 1.0000000000000000
     8.0831800000000005    0.0000000000000000    0.0000000000000000
     0.0000000000000000    8.0831800000000005    0.0000000000000000
     0.0000000000000000    0.0000000000000000    8.0831800000000005
  Al  Mg  Si
  22   2   8
Direct
  0.9980500999999999  0.0044296000000000  0.9985222000000000
  0.7449797000000000  0.7663681000000000  0.5062720000000001
  0.9949327000000000  0.7470032000000000  0.7510787000000000
  0.2605471000000000  0.5133489000000000  0.7451560000000000
  0.0130865000000000  0.5115077000000000  0.5030554000000000
  0.4989436999999999  0.2391950000000000  0.7283962000000000
  0.7530853000000000  0.0025060000000000  0.7586670000000000
  0.7560060000000000  0.2341496000000000  0.5043986000000000
  0.2448553000000000  0.9893669000000000  0.7450404000000000
  0.0007823000000000  0.9929462999999999  0.5053138000000000
  0.7398215000000000  0.4981297000000000  0.7370100000000001
  0.7588757000000000  0.7521725000000000  0.9937757000000000
  0.5009400000000001  0.7597617000000000  0.7416883000000000
  0.0035926000000000  0.7574720000000000  0.2494422000000000
  0.2622638000000000  0.9932572999999999  0.2713168000000000
  0.0015931000000000  0.2397541000000000  0.2546370000000000
  0.5030530000000000  0.9827110000000000  0.0043906000000000
  0.7301827000000000  0.2488682000000000  0.9957003000000000
  0.5055666000000000  0.5226781000000000  0.9975817000000000
  0.7456813000000000  0.0000049000000000  0.2451835000000000
  0.9932123999999999  0.4930821000000000  0.9919376999999999
  0.2412068000000000  0.7488897000000000  0.0035554000000000
  0.7470898000000000  0.5021115000000000  0.2667950000000000
  0.2700306000000000  0.2534271000000000  0.0053739000000000
  0.4908839000000000  0.9954051000000000  0.4953471000000000
  0.4978610000000001  0.2500929000000000  0.2615149000000000
  0.2544653000000000  0.2535548000000000  0.4984183000000000
  0.2526267000000000  0.7422966000000000  0.4918352000000000
  0.2527326000000000  0.4974489000000000  0.2559240000000000
  0.4919660000000000  0.5001980000000000  0.4987310000000000
  0.0005019000000000  0.2596145000000000  0.7422510000000000
  0.4905840000000000  0.7482479000000000  0.2516902000000000
