Al 
 1.0000000000000000
     3.7586804699999998    0.0000000000000000    0.0000000000000000
     0.0000000000000000    3.7586804699999998    0.0000000000000000
     0.0000000000000000    0.0000000000000000    3.7586804699999998
  Al
   4
Direct
  0.0000000000000000  0.0000000000000000  0.0000000000000000
  0.5408831000000000  0.5561289999999999  0.9732045000000000
  0.5233749000000000  0.0236447000000000  0.5221197000000000
  0.0253881000000000  0.5128894000000001  0.5202502000000000
