Mg 
 1.0000000000000000
     3.2003287999999999   -0.0160016000000000    0.0000000000000000
    -1.6161656000000000    2.7715657999999999    0.0000000000000000
     0.0000000000000000    0.0000000000000000    5.1879144999999998
  Mg
   2
Direct
  0.3333330000000000  0.6666670000000000  0.2500000000000000
  0.6666670000000000  0.3333330000000000  0.7500000000000000
