Al Mg Si 
 1.0000000000000000
     8.0831800000000005    0.0000000000000000    0.0000000000000000
     0.0000000000000000    8.0831800000000005    0.0000000000000000
     0.0000000000000000    0.0000000000000000    8.0831800000000005
  Al  Mg  Si
  22   2   8
Direct
  0.0017123000000000  0.0002189000000000  0.0011506000000000
  0.7566595000000000  0.7640563000000000  0.5210672000000000
  0.0068895000000000  0.7579949000000000  0.7572449000000000
  0.0152943000000000  0.5178643000000001  0.5188136000000000
  0.7413178000000000  0.0089952000000000  0.7588974000000001
  0.4821632000000000  0.9861915999999999  0.4935474000000000
  0.0044476000000000  0.2479934000000000  0.7486018000000000
  0.2542410000000000  0.0001364000000000  0.7512794000000000
  0.0127796000000000  0.9948050000000001  0.4965380000000000
  0.7510849000000001  0.4953921000000000  0.7545265000000000
  0.7447215000000000  0.7484092000000000  0.9892004000000000
  0.4938191000000000  0.4831916000000000  0.9957829000000001
  0.4907590000000000  0.7368990000000000  0.7459848000000000
  0.4993720000000000  0.0054322000000000  0.0000696000000000
  0.2616759000000000  0.7458226999999999  0.0049098000000000
  0.0077278000000000  0.5039765000000000  0.9913765000000000
  0.2470703000000000  0.2549118000000000  0.9917163000000000
  0.7401458000000000  0.9773400000000000  0.2447228000000000
  0.7516336000000000  0.2487217000000000  0.0087250000000000
  0.0163077000000000  0.7535082000000000  0.2481845000000000
  0.2562062000000000  0.0078421000000000  0.2420616000000000
  0.0072949000000000  0.2509251000000000  0.2485483000000000
  0.7489781000000000  0.5189633000000000  0.2651642000000000
  0.7382444000000000  0.2444926000000000  0.4904577000000000
  0.4918884000000000  0.4951888000000000  0.4961649000000000
  0.2582155000000000  0.4960861999999999  0.7382320000000000
  0.2492872000000000  0.5037720000000000  0.2572571000000000
  0.4913321000000000  0.2507368000000000  0.7388762000000000
  0.4756009000000000  0.2558002000000000  0.2488163000000000
  0.2446044000000000  0.2583264000000000  0.4956903000000000
  0.2618920000000000  0.7408854000000000  0.5009092000000001
  0.4966337000000000  0.7451200000000000  0.2554826000000000
