Si 
 1.0000000000000000
     4.4521840900000003    0.0000000000000000    0.0000000000000000
     0.0000000000000000    4.4521840900000003    0.0000000000000000
     0.0000000000000000    0.0000000000000000    4.4521840900000003
  Si
   2
Direct
  0.0000000000000000  0.0000000000000000  0.0000000000000000
  0.5000000000000000  0.5000000000000000  0.5000000000000000
