Generated by napsys.py at 2017-11-29. Si O
       0.9959021
       5.0197850       0.0050000       0.0000000
      -2.5048920       4.3472610       0.0000000
       0.0000000       0.0000000       5.5086880
   Si    O
    3    6
Selective dynamics
Direct
       0.4759654      -0.0000217       0.6664096 T T T
       0.5239772       0.5239613       0.0000614 T T T
      -0.0000058       0.4759422       0.3335253 T T T
       0.4147791       0.2566406       0.7941672 T T T
       0.7434685       0.1583752       0.4608286 T T T
       0.5851042       0.8417624       0.8724830 T T T
       0.2566117       0.4147920       0.2058426 T T T
       0.1584054       0.7434766       0.5391533 T T T
       0.8416945       0.5850714       0.1275291 T T T
