Al Mg Si 
 1.0000000000000000
     8.0831800000000005    0.0000000000000000    0.0000000000000000
     0.0000000000000000    8.0831800000000005    0.0000000000000000
     0.0000000000000000    0.0000000000000000    8.0831800000000005
  Al  Mg  Si
  22   2   8
Direct
  0.0036484000000000  0.9959252000000000  0.0018268000000000
  0.7566874000000000  0.7616585000000000  0.5187737000000000
  0.0086565000000000  0.7557090000000000  0.7564432000000000
  0.0163479000000000  0.5168108000000000  0.5164053000000000
  0.7477271000000000  0.0029478000000000  0.7576277000000000
  0.4838272000000000  0.9874275000000000  0.4965370000000000
  0.0054560000000000  0.2508518000000000  0.7514933000000000
  0.2514460000000000  0.0015114000000000  0.7502804000000000
  0.0102794000000000  0.9959487000000000  0.4983771000000000
  0.7534069000000000  0.5014885000000000  0.7568228000000000
  0.7446866000000000  0.7502268000000000  0.9924963000000000
  0.4929718000000000  0.4835874000000000  0.9924543000000000
  0.4906411000000000  0.7388574000000000  0.7448819000000000
  0.4978000000000000  0.0068713000000000  0.9939257000000001
  0.2634763000000000  0.7456312000000000  0.0058931000000000
  0.0071969000000000  0.5057322000000000  0.9941393000000001
  0.2452256000000000  0.2554036000000000  0.9953637999999999
  0.7381356000000000  0.9795547999999999  0.2448917000000000
  0.7502112000000000  0.2467930000000000  0.0033809000000000
  0.0162781000000000  0.7548427000000000  0.2520392000000000
  0.2576789000000000  0.0070366000000000  0.2445825000000000
  0.0034347000000000  0.2460737000000000  0.2468649000000000
  0.7485912000000000  0.5156511000000000  0.2630901000000000
  0.7385822000000000  0.2473059000000000  0.4970054000000000
  0.4918075000000000  0.4951471000000000  0.4956332000000000
  0.2570491000000000  0.4969650000000000  0.7366989000000000
  0.2493047000000000  0.5030800000000000  0.2559084000000000
  0.4901060000000000  0.2513940000000000  0.7401223000000000
  0.4758851000000000  0.2552693000000000  0.2481166000000000
  0.2445913000000000  0.2580864000000000  0.4954700000000001
  0.2617889000000000  0.7408920000000000  0.4980030999999999
  0.4970743000000000  0.7453194000000000  0.2544510000000000
