Si 
 1.0000000000000000
     3.0170347199999998    0.0000000000000000    0.0000000000000000
     0.0000000000000000    3.0170347199999998    0.0000000000000000
     0.0000000000000000    0.0000000000000000    3.0170347199999998
  Si
   2
Direct
  0.0000000000000000  0.0000000000000000  0.0000000000000000
  0.4999999999999999  0.4999999999999999  0.4999999999999999
