Si 
 1.0000000000000000
     5.4690641500000003    0.0000000000000000    0.0000000000000000
     0.0000000000000000    5.4690641500000003    0.0000000000000000
     0.0000000000000000    0.0000000000000000    5.4690641500000003
  Si
   8
Direct
  0.1355627000000000  0.9980383600000000  0.0777186300000000
  0.4008344500000000  0.2501516900000000  0.3354867800000000
  0.6639255500000000  0.5051348900000000  0.1078803200000000
  0.8858145899999998  0.7821565600000000  0.3527892000000000
  0.6269656000000000  0.9993217599999999  0.5866076200000000
  0.9139178200000000  0.2573353900000000  0.8302803999999999
  0.1486621400000000  0.5052466600000000  0.5855440400000000
  0.4073845200000000  0.7396069300000000  0.8517576700000000
