Al Mg Si 
 1.0000000000000000
     8.0831800000000005    0.0000000000000000    0.0000000000000000
     0.0000000000000000    8.0831800000000005    0.0000000000000000
     0.0000000000000000    0.0000000000000000    8.0831800000000005
  Al  Mg  Si
  22   2   8
Direct
  0.0012660000000000  0.9989324000000001  0.0034728000000000
  0.7417853000000000  0.7639608000000000  0.5088591000000000
  0.9934260000000000  0.7459592000000000  0.7508760000000000
  0.2510375000000000  0.5148733000000000  0.7521485000000000
  0.0081747000000000  0.4952792999999999  0.5090823000000000
  0.7599455000000001  0.0007692000000000  0.7564586000000000
  0.7538855000000000  0.2345041000000000  0.4992229000000000
  0.2356655000000000  0.9894091000000000  0.7503844000000000
  0.0033066000000000  0.9924033999999999  0.4971322000000000
  0.7457308000000000  0.5023470000000000  0.7453101000000000
  0.7529749999999999  0.7527010000000000  0.9938580999999999
  0.4951348000000000  0.5165133000000000  0.0007047000000000
  0.4967880000000000  0.7633668000000000  0.7437378000000000
  0.7488994000000000  0.2479875000000000  0.9978892000000000
  0.2441631000000000  0.7534043000000000  0.0051146000000000
  0.9997352000000002  0.4972919000000000  0.9936461000000000
  0.2505427000000000  0.2517855000000000  0.0055211000000000
  0.2697091000000000  0.0033704000000000  0.2644362000000000
  0.0034571000000000  0.2404230000000000  0.2473840000000000
  0.7450734000000000  0.9945891999999998  0.2473020000000000
  0.0054742000000000  0.7530004000000000  0.2503053000000000
  0.4998906000000000  0.9926332000000000  0.0034923000000000
  0.7491648000000000  0.5036587000000000  0.2617876000000000
  0.4890878000000000  0.2419801000000000  0.7355668000000000
  0.4948668999999999  0.4976205000000000  0.4979016000000000
  0.2562962000000000  0.5015847000000000  0.2546017000000000
  0.4973641999999999  0.0015788000000000  0.4900244000000000
  0.0086058000000000  0.2482754000000000  0.7384387000000000
  0.4943348000000000  0.2534775000000000  0.2517537000000000
  0.2515366000000000  0.2529133000000000  0.4880654000000000
  0.2571974000000000  0.7457769000000000  0.4963619000000000
  0.4954798999999999  0.7476299000000000  0.2591600000000000
