Si 
 1.0000000000000000
     3.0833824999999999    0.0000000000000000    0.0000000000000000
     0.0000000000000000    3.0833824999999999    0.0000000000000000
     0.0000000000000000    0.0000000000000000    3.0833824999999999
  Si
   2
Direct
  0.0000000000000000  0.0000000000000000  0.0000000000000000
  0.5000000000000000  0.5000000000000000  0.5000000000000000
