Al Mg Si 
 1.0000000000000000
     8.0831800000000005    0.0000000000000000    0.0000000000000000
     0.0000000000000000    8.0831800000000005    0.0000000000000000
     0.0000000000000000    0.0000000000000000    8.0831800000000005
  Al  Mg  Si
  22   2   8
Direct
  0.9911458999999999  0.0023134000000000  0.0131799000000000
  0.7552259000000000  0.7640980000000001  0.5210324000000000
  0.0037859000000000  0.7524246000000000  0.7569849000000000
  0.0133277000000000  0.5154953000000000  0.5184839999999999
  0.7565731000000000  0.0078420000000000  0.7574347000000000
  0.7537395000000000  0.2323940000000000  0.4945393000000000
  0.0025216000000000  0.2501968000000000  0.7396420000000000
  0.2299355000000000  0.9961946000000000  0.7639022000000000
  0.0167083000000000  0.9932797000000000  0.4881685000000000
  0.7457767000000000  0.4857315000000000  0.7439671000000000
  0.7455673000000000  0.7449656000000000  0.9904301000000000
  0.4985926999999999  0.4867223000000000  0.0021629000000000
  0.4920566000000000  0.7314148000000000  0.7492598000000000
  0.5022940000000000  0.0089270000000000  0.9768868000000001
  0.2596484000000000  0.7439559000000000  0.0003115000000000
  0.0046066000000000  0.5022796000000000  0.9902875999999999
  0.2482419000000000  0.2597707000000000  0.9860470000000000
  0.7341808000000000  0.9776632000000000  0.2477777000000000
  0.7544076000000000  0.2522895000000000  0.0095773000000000
  0.0192289000000000  0.7501189000000000  0.2472844000000000
  0.2627134000000000  0.0076948000000000  0.2308445000000000
  0.0155088000000000  0.2563776000000000  0.2574407000000000
  0.7512436000000000  0.5150034000000000  0.2750793000000000
  0.4635504000000000  0.0012702000000000  0.5203117000000000
  0.4939969000000000  0.4984389000000001  0.4984764999999999
  0.2566092000000000  0.4984068999999999  0.7376213000000000
  0.2544148000000000  0.5010011000000000  0.2530580000000000
  0.4955076999999999  0.2541311000000000  0.7398671999999999
  0.4915068000000000  0.2539752000000000  0.2538992000000000
  0.2486787000000000  0.2602669000000000  0.4942326000000000
  0.2503847000000000  0.7419354000000000  0.4959632999999999
  0.4883201000000000  0.7534211000000000  0.2458458000000000
