Si 
 1.0000000000000000
     5.3060860400000003    0.0000000000000000    0.0000000000000000
     0.0000000000000000    5.4143735099999999    0.0000000000000000
     0.0000000000000000    0.0000000000000000    5.4143735099999999
  Si
   8
Direct
  0.0000000000000000  0.0000000000000000  0.0000000000000000
  0.2500000000000000  0.2500000000000000  0.2500000000000000
  0.5000000000000000  0.5000000000000000  0.0000000000000000
  0.7500000000000000  0.7499999999999999  0.2500000000000000
  0.5000000000000000  0.0000000000000000  0.5000000000000000
  0.7500000000000000  0.2500000000000000  0.7499999999999999
  0.0000000000000000  0.5000000000000000  0.5000000000000000
  0.2500000000000000  0.7499999999999999  0.7499999999999999
