Si 
 1.0000000000000000
     5.4690641500000003    0.0000000000000000    0.0000000000000000
     0.0000000000000000    5.4690641500000003    0.0000000000000000
     0.0000000000000000    0.0000000000000000    5.4690641500000003
  Si
   8
Direct
  0.1563404100000000  0.0039907800000000  0.1196755800000000
  0.4000529900000000  0.2729173000000000  0.3458660100000000
  0.6574709000000000  0.4944877900000000  0.0781339900000000
  0.8922803599999999  0.7471045100000000  0.3371144800000000
  0.6291918700000000  0.0089312800000000  0.5915617800000000
  0.9134823200000000  0.2312514300000000  0.8379299900000000
  0.1338446400000000  0.5112120999999999  0.5856319100000000
  0.4004667399999999  0.7670990099999999  0.8321896099999999
