Al Mg Si 
 1.0000000000000000
     8.0831800000000005    0.0000000000000000    0.0000000000000000
     0.0000000000000000    8.0831800000000005    0.0000000000000000
     0.0000000000000000    0.0000000000000000    8.0831800000000005
  Al  Mg  Si
  22   3   7
Direct
  0.9963895999999999  0.0033638000000000  0.0011385000000000
  0.7396750000000000  0.7711486000000000  0.5128339000000000
  0.0030387000000000  0.7538119000000000  0.7497691000000000
  0.0116291000000000  0.5106211000000000  0.5136053000000000
  0.7555778000000000  0.0024994000000000  0.7635868000000000
  0.4727959000000000  0.0018372000000000  0.4991713000000000
  0.9969703000000000  0.2543125000000000  0.7518236000000000
  0.2429767000000000  0.0236173000000000  0.7452316000000000
  0.0129133000000000  0.9840877000000000  0.4935156000000000
  0.7294108000000000  0.4967931000000000  0.7327389000000000
  0.7511996000000000  0.7385195000000000  0.9866671000000000
  0.5027726000000000  0.5123212000000000  0.0177742000000000
  0.4934393000000000  0.7655821000000000  0.7498796000000000
  0.4981837000000001  0.0016801000000000  0.9951880000000001
  0.2460201000000000  0.7554182000000000  0.9949226000000001
  0.9960087999999999  0.4974366000000001  0.9918839000000002
  0.2562052000000000  0.2479663000000000  0.0037835000000000
  0.7346599000000000  0.9700138000000000  0.2339180000000000
  0.7442632000000000  0.2534855000000000  0.0175528000000000
  0.0069139000000000  0.7504526000000000  0.2456991000000000
  0.2573715000000000  0.9944107000000000  0.2433184000000000
  0.0125474000000000  0.2462134000000000  0.2499332000000000
  0.7488482000000000  0.5120761000000000  0.2758756000000000
  0.7487698000000000  0.2157702000000000  0.4847668000000000
  0.2882020000000000  0.4792034000000000  0.7471615000000000
  0.4940297000000000  0.5013751000000000  0.4932001000000000
  0.2510347000000000  0.5035002000000000  0.2542563000000000
  0.5296512000000000  0.2377278000000000  0.7671458000000000
  0.4864838000000000  0.2564414000000000  0.2496289000000000
  0.2490082000000000  0.2576168000000000  0.4881757000000000
  0.2515174000000000  0.7522991999999999  0.4929410000000000
  0.4914927000000000  0.7483970000000000  0.2529132000000000
