Si 
 1.0000000000000000
     3.7843337099999999    0.0000000000000000    0.0000000000000000
     0.0000000000000000    3.7843337099999999    0.0000000000000000
     0.0000000000000000    0.0000000000000000    3.7843337099999999
  Si
   4
Direct
  0.0000000000000000  0.0000000000000000  0.0000000000000000
  0.5000000000000000  0.5000000000000000  0.0000000000000000
  0.5000000000000000  0.0000000000000000  0.5000000000000000
  0.0000000000000000  0.5000000000000000  0.5000000000000000
