Si 
 1.0000000000000000
     5.3513816099999998    0.0000000000000000    0.0000000000000000
     0.0000000000000000    5.3513816099999998    0.0000000000000000
     0.0000000000000000    0.0000000000000000    5.3513816099999998
  Si
   8
Direct
  0.0000000000000000  0.0000000000000000  0.0000000000000000
  0.2500000000000000  0.2500000000000000  0.2500000000000000
  0.5000000000000000  0.5000000000000000  0.0000000000000000
  0.7499999999999999  0.7499999999999999  0.2500000000000000
  0.5000000000000000  0.0000000000000000  0.5000000000000000
  0.7499999999999999  0.2500000000000000  0.7499999999999999
  0.0000000000000000  0.5000000000000000  0.5000000000000000
  0.2500000000000000  0.7499999999999999  0.7499999999999999
