Si 
 1.0000000000000000
     5.4690641500000003    0.0000000000000000    0.0000000000000000
     0.0000000000000000    5.4690641500000003    0.0000000000000000
     0.0000000000000000    0.0000000000000000    5.4690641500000003
  Si
   8
Direct
  0.1599910900000000  0.0022880600000000  0.0978775900000000
  0.3952573899999999  0.2492036700000000  0.3490226100000000
  0.6307155599999998  0.4987968300000000  0.0808322200000000
  0.8970195099999999  0.7524897100000001  0.3305466000000000
  0.6565597700000000  0.9971080000000000  0.5924987700000000
  0.8981504399999999  0.2517306300000000  0.8417694299999999
  0.1437741600000000  0.5172869600000000  0.5968160200000000
  0.4016635900000000  0.7680903700000000  0.8387408800000000
