Si 
 1.0000000000000000
     5.4690641500000003    0.0000000000000000    0.0000000000000000
     0.0000000000000000    5.4690641500000003    0.0000000000000000
     0.0000000000000000    0.0000000000000000    5.4690641500000003
  Si
   8
Direct
  0.1283155600000000  0.0026684700000000  0.0761786500000000
  0.3870253599999999  0.2453107600000000  0.3173250300000000
  0.6481043600000000  0.5090050400000000  0.0950404100000000
  0.8872829299999999  0.7570478400000000  0.3569389700000000
  0.6516885200000000  0.0099796700000000  0.5856184400000000
  0.9016995499999999  0.2680228700000000  0.8556131400000000
  0.1640875900000000  0.4944648400000000  0.5875968400000000
  0.3916648800000000  0.7497673499999999  0.8394766600000000
