Si 
 1.0000000000000000
     5.4690641500000003    0.0000000000000000    0.0000000000000000
     0.0000000000000000    5.4690641500000003    0.0000000000000000
     0.0000000000000000    0.0000000000000000    5.4690641500000003
  Si
   8
Direct
  0.1523977900000000  0.9934916000000000  0.0943097400000000
  0.3995291600000000  0.2472667800000000  0.3239624500000000
  0.6515177700000000  0.4911067399999999  0.0904385900000000
  0.8911510700000000  0.7659443500000001  0.3415708200000000
  0.6387411400000000  0.0160657200000000  0.6147657399999999
  0.9019573300000000  0.2502428000000000  0.8370999399999999
  0.1428893300000000  0.5175024000000000  0.5793474300000000
  0.4016859900000000  0.7552718500000000  0.8446019999999999
