Si 
 1.0000000000000000
     3.0519319999999999    0.0000000000000000    0.0000000000000000
     0.0000000000000000    3.1142163300000001    0.0000000000000000
     0.0000000000000000    0.0000000000000000    3.1142163300000001
  Si
   2
Direct
  0.0000000000000000  0.0000000000000000  0.0000000000000000
  0.5000000000000000  0.5000000000000000  0.5000000000000000
