Al Mg Si 
 1.0000000000000000
     8.0831800000000005    0.0000000000000000    0.0000000000000000
     0.0000000000000000    8.0831800000000005    0.0000000000000000
     0.0000000000000000    0.0000000000000000    8.0831800000000005
  Al  Mg  Si
  22   3   7
Direct
  0.0030564000000000  0.0025436000000000  0.0030564000000000
  0.7450571000000000  0.7598217000000000  0.5020947000000000
  0.9975381000000000  0.7461086000000000  0.7510847000000000
  0.0300391000000000  0.5088307000000000  0.4985606000000000
  0.7593982000000000  0.9980016000000000  0.7593982000000000
  0.5071244000000000  0.0406874000000000  0.5071244000000000
  0.0005789000000000  0.2513296000000000  0.7420131000000000
  0.2419385000000000  0.0040667000000000  0.7381864000000000
  0.9888086000000000  0.9944618999999999  0.4951134000000000
  0.7430784000000000  0.5002807000000000  0.7430784000000000
  0.7510847000000000  0.7461086000000000  0.9975381000000000
  0.4985606000000000  0.5088307000000000  0.0300391000000000
  0.5020947000000000  0.7598217000000000  0.7450571000000000
  0.4951134000000000  0.9944618999999999  0.9888086000000000
  0.2462122000000000  0.7527161999999999  0.0044263000000000
  0.9976726000000000  0.4908085000000000  0.9976726000000000
  0.2543381000000000  0.2407913000000000  0.0050675000000000
  0.7381864000000000  0.0040667000000000  0.2419385000000000
  0.7420131000000000  0.2513296000000000  0.0005789000000000
  0.2627321000000000  0.9951777000000001  0.2627321000000000
  0.0044263000000000  0.7527161999999999  0.2462122000000000
  0.0050675000000000  0.2407913000000000  0.2543381000000000
  0.7555633000000000  0.4908562000000000  0.2725665000000000
  0.4760388000000000  0.4804064000000000  0.4760388000000000
  0.2725665000000000  0.4908562000000000  0.7555633000000000
  0.2491503000000000  0.5009574000000000  0.2491503000000000
  0.5198936000000000  0.2471010000000000  0.7589442000000000
  0.7589442000000000  0.2471010000000000  0.5198936000000000
  0.4770522000000000  0.2433858000000000  0.2388438000000000
  0.2388438000000000  0.2433858000000000  0.4770522000000000
  0.2507530000000000  0.7560986000000000  0.4870750000000000
  0.4870750000000000  0.7560986000000000  0.2507530000000000
